experiment/data/hgs-res/Vrp-Set-A-n80/Vrp-Set-A-n80-hgs/0.hgs1.vrp
NAME : 0
COMMENT : CVRP Instance
TYPE : CVRP
DIMENSION : 80
EDGE_WEIGHT_TYPE : EUC_2D
CAPACITY : 100
NODE_COORD_SECTION
1	92.0	92.0
2	88.0	58.0
3	70.0	6.0
4	57.0	59.0
5	0.0	98.0
6	61.0	38.0
7	65.0	22.0
8	91.0	52.0
9	59.0	2.0
10	3.0	54.0
11	95.0	38.0
12	80.0	28.0
13	66.0	42.0
14	79.0	74.0
15	99.0	25.0
16	20.0	43.0
17	40.0	3.0
18	50.0	42.0
19	97.0	0.0
20	21.0	19.0
21	36.0	21.0
22	100.0	61.0
23	11.0	85.0
24	69.0	35.0
25	69.0	22.0
26	29.0	35.0
27	14.0	9.0
28	50.0	33.0
29	89.0	17.0
30	57.0	44.0
31	60.0	25.0
32	48.0	42.0
33	17.0	93.0
34	21.0	50.0
35	77.0	18.0
36	2.0	4.0
37	63.0	83.0
38	68.0	6.0
39	41.0	95.0
40	48.0	54.0
41	98.0	73.0
42	26.0	38.0
43	69.0	76.0
44	40.0	1.0
45	65.0	41.0
46	14.0	86.0
47	32.0	39.0
48	14.0	24.0
49	96.0	5.0
50	82.0	98.0
51	23.0	85.0
52	63.0	69.0
53	87.0	19.0
54	56.0	75.0
55	15.0	63.0
56	10.0	45.0
57	7.0	30.0
58	31.0	11.0
59	36.0	93.0
60	50.0	31.0
61	49.0	52.0
62	39.0	10.0
63	76.0	40.0
64	83.0	34.0
65	33.0	51.0
66	0.0	15.0
67	52.0	82.0
68	52.0	82.0
69	46.0	6.0
70	3.0	26.0
71	46.0	80.0
72	94.0	30.0
73	26.0	76.0
74	75.0	92.0
75	57.0	51.0
76	34.0	21.0
77	28.0	80.0
78	59.0	66.0
79	51.0	16.0
80	87.0	11.0
DEMAND_SECTION
1	0
2	24
3	22
4	23
5	5
6	11
7	23
8	26
9	9
10	23
11	9
12	14
13	16
14	12
15	2
16	2
17	6
18	20
19	26
20	12
21	15
22	13
23	26
24	17
25	7
26	12
27	4
28	4
29	20
30	10
31	9
32	2
33	9
34	1
35	2
36	2
37	12
38	14
39	23
40	21
41	13
42	13
43	23
44	3
45	6
46	23
47	11
48	2
49	7
50	13
51	10
52	3
53	6
54	13
55	2
56	14
57	7
58	21
59	7
60	22
61	13
62	22
63	18
64	22
65	6
66	2
67	11
68	5
69	9
70	9
71	5
72	12
73	2
74	12
75	19
76	6
77	14
78	2
79	2
80	24
DEPOT_SECTION
1
-1
EOF
