experiment/data/hgs-res/Vrp-Set-A-n80/Vrp-Set-A-n80-hgs/0.hgs1.tour
Route #1: 58 32 4 22 45 50 76 70
Route #2: 49 73 36 67 66 53 42
Route #3: 46 25 41 55 9 54 72 38
Route #4: 29 20 75 57 19 26 35 65 69 56 47 15 33 64
Route #5: 13 74 60 39 3 77 51
Route #6: 17 31 27 59 5 44 12 62
Route #7: 34 2 37 8 68 43 16 61 78 30
Route #8: 10 63 11 24 6 23
Route #9: 71 14 48 18 79 28 52
Route #10: 1 7 21 40
Cost 1766.5
